************************************************************************
file with basedata            : md366_.bas
initial value random generator: 965390156
************************************************************************
projects                      :  1
jobs (incl. supersource/sink ):  22
horizon                       :  153
RESOURCES
  - renewable                 :  2   R
  - nonrenewable              :  2   N
  - doubly constrained        :  0   D
************************************************************************
PROJECT INFORMATION:
pronr.  #jobs rel.date duedate tardcost  MPM-Time
    1     20      0       22       17       22
************************************************************************
PRECEDENCE RELATIONS:
jobnr.    #modes  #successors   successors
   1        1          3           2   3   4
   2        3          2           7   9
   3        3          3           8  12  19
   4        3          2           5  12
   5        3          3           6  10  16
   6        3          2          13  18
   7        3          3          11  14  18
   8        3          1          15
   9        3          1          10
  10        3          3          14  17  21
  11        3          2          12  19
  12        3          2          13  16
  13        3          2          17  21
  14        3          2          19  20
  15        3          3          16  18  21
  16        3          1          17
  17        3          1          20
  18        3          1          20
  19        3          1          22
  20        3          1          22
  21        3          1          22
  22        1          0        
************************************************************************
REQUESTS/DURATIONS:
jobnr. mode duration  R 1  R 2  N 1  N 2
------------------------------------------------------------------------
  1      1     0       0    0    0    0
  2      1     3       7   10    5   10
         2     7       7    9    4    9
         3    10       6    9    4    6
  3      1     2       7   10   10   10
         2     2       9   10    8   10
         3     5       2    9    6    9
  4      1     2       4    4    4    7
         2     3       4    3    4    7
         3     6       3    3    3    6
  5      1     1       8    8    5    4
         2     2       8    4    4    3
         3    10       7    2    2    3
  6      1     5       6    7    4    6
         2     8       6    2    3    5
         3     8       6    5    3    2
  7      1     1       6    7    5    4
         2     1       6    8    6    3
         3     4       5    6    3    3
  8      1     3       9    7    8    3
         2     5       8    6    7    3
         3     5       9    5    7    2
  9      1     1       8   10   10    7
         2     8       4   10    1    4
         3     8       2   10    3    2
 10      1     1       6    4    6    8
         2     4       4    1    6    6
         3     4       4    3    6    5
 11      1     1       5    2    8    8
         2     6       5    2    6    7
         3     9       3    2    6    7
 12      1     4       7    6    4   10
         2     9       6    5    4    5
         3    10       6    2    4    2
 13      1     2       8    7   10   10
         2     5       8    5    9    9
         3     7       8    2    8    9
 14      1     2       9    4    6    3
         2     3       9    3    6    3
         3     6       9    1    5    2
 15      1     1       8    8    8    5
         2     7       8    5    8    5
         3    10       7    4    7    3
 16      1     5       8    4    9    9
         2     9       6    3    7    6
         3    10       5    3    6    5
 17      1     2       9    6    6    7
         2     3       6    5    5    5
         3     6       5    5    5    3
 18      1     3       7   10    8    7
         2     5       6    7    4    5
         3     9       2    4    2    3
 19      1     5       8    6    3    3
         2     5       8    4    2    4
         3     9       5    2    2    3
 20      1     6       2    3    7    7
         2     6       2    2    8    9
         3     7       2    2    4    3
 21      1     5       9   10    5    8
         2     7       9    6    3    6
         3    10       8    5    3    5
 22      1     0       0    0    0    0
************************************************************************
RESOURCEAVAILABILITIES:
  R 1  R 2  N 1  N 2
   20   21  110  111
************************************************************************
MAXIMAL LAGS:
from  to  type  delay
    1   22   ES      0
    1    2   ES      0
    2   22   ES      0
    1    3   ES      0
    3   22   ES      0
    1    4   ES      0
    4   22   ES      0
    1    5   ES      0
    5   22   ES      0
    1    6   ES      0
    6   22   ES      0
    1    7   ES      0
    7   22   ES      0
    1    8   ES      0
    8   22   ES      0
    1    9   ES      0
    9   22   ES      0
    1   10   ES      0
   10   22   ES      0
    1   11   ES      0
   11   22   ES      0
    1   12   ES      0
   12   22   ES      0
    1   13   ES      0
   13   22   ES      0
    1   14   ES      0
   14   22   ES      0
    1   15   ES      0
   15   22   ES      0
    1   16   ES      0
   16   22   ES      0
    1   17   ES      0
   17   22   ES      0
    1   18   ES      0
   18   22   ES      0
    1   19   ES      0
   19   22   ES      0
    1   20   ES      0
   20   22   ES      0
    1   21   ES      0
   21   22   ES      0
    1   22   ES      0
    2    7   SS      4
    2    7   SE      1
    2    7   ES      3
    2    7   EE     -3
    2    9   SS     10
    2    9   SE      4
    2    9   ES     -2
    2    9   EE      3
    3    8   SS      4
    3    8   SE     -5
    3    8   ES    -11
    3    8   EE     -4
    3   12   SS     -2
    3   12   SE     -2
    3   12   ES      6
    3   12   EE      0
    3   19   SS      9
    3   19   SE     -2
    3   19   ES      9
    3   19   EE     12
    4    5   SS      2
    4    5   SE      9
    5    4   SE      0
    4    5   ES      0
    4    5   EE      8
    4   12   SS      9
    4   12   SE     -1
    4   12   ES      2
    4   12   EE      4
    5    6   SS      0
    5    6   SE      5
    5    6   ES      9
    5    6   EE    -12
    5   10   SS    -11
    5   10   SE     -1
    5   10   ES     -2
    5   10   EE    -10
    5   16   SS     11
    5   16   SE     -8
    5   16   ES      0
    5   16   EE      8
    6   13   SS     11
    6   13   SE      3
    6   13   ES      8
    6   13   EE      1
    6   18   SS     -4
    6   18   SE      8
    6   18   ES     -4
    6   18   EE      7
    7   11   SS     -4
    7   11   SE     -6
    7   11   ES      1
    7   11   EE     -5
    7   14   SS     -7
    7   14   SE      2
    7   14   ES    -11
    7   14   EE     -1
    7   18   SS      1
    7   18   SE     -9
    7   18   ES     -4
    7   18   EE      1
    8   15   SS     -1
    8   15   SE     -6
    8   15   ES     -4
    8   15   EE     -4
    9   10   SS     -7
    9   10   SE    -11
    9   10   ES    -11
    9   10   EE     -3
   10   14   SS     -8
   10   14   SE    -10
   10   14   ES      9
   10   14   EE      4
   10   17   SS      1
   10   17   SE      2
   10   17   ES     -4
   10   17   EE      2
   10   21   SS     10
   10   21   SE     -9
   10   21   ES     -1
   10   21   EE     -8
   11   12   SS    -11
   11   12   SE     -5
   11   12   ES     -2
   11   12   EE    -10
   11   19   SS      8
   11   19   SE      6
   11   19   ES    -10
   11   19   EE      6
   12   13   SS      4
   12   13   SE     -1
   12   13   ES      9
   12   13   EE      9
   12   16   SS    -12
   12   16   SE     -2
   12   16   ES      1
   12   16   EE     -1
   13   17   SS      8
   13   17   SE     -9
   13   17   ES     -5
   13   17   EE     -5
   13   21   SS     -2
   13   21   SE      5
   13   21   ES     -2
   13   21   EE    -11
   14   19   SS      5
   14   19   SE    -10
   14   19   ES      8
   14   19   EE     -4
   14   20   SS     -6
   14   20   SE     -7
   14   20   ES     -7
   14   20   EE     10
   15   16   SS      6
   15   16   SE      4
   15   16   ES      3
   15   16   EE      1
   15   18   SS      1
   15   18   SE     10
   15   18   ES     -6
   15   18   EE     -7
   15   21   SS      3
   15   21   SE      9
   15   21   ES      6
   15   21   EE     10
   16   17   SS     10
   16   17   SE    -11
   16   17   ES     12
   16   17   EE     -4
   17   20   SS     -8
   17   20   SE     -6
   17   20   ES     -6
   17   20   EE      5
   18   20   SS     -9
   18   20   SE    -12
   18   20   ES      0
   18   20   EE    -11
************************************************************************
